[VALIDATOR STDOUT]
Checking plan: /home/jfan5/Safety-gen/runs/benchmark/optic/grid_20260201_173417/grid/optic_results/grid_x5_y5_sh2_k4_l4_s5001.plan
Plan executed successfully - checking goal
Plan valid
Final value: 46 

Successful plans:
Value: 46
 /home/jfan5/Safety-gen/runs/benchmark/optic/grid_20260201_173417/grid/optic_results/grid_x5_y5_sh2_k4_l4_s5001.plan 46
